1/Lab1TSP.lp
\ENCODING=ISO-8859-1
\Problem name: 

Minimize
 obj: 446.115272070596 y_0_1 + 894.913078503777 y_0_2 + 393.078590334517 y_0_3
      + 610.794055731713 y_0_4 + 76.0474400589176 y_0_5
      + 581.677064814458 y_0_6 + 570.602779768124 y_1_2
      + 89.5880257445815 y_1_3 + 810.353324213837 y_1_4
      + 953.794420984997 y_1_5 + 406.451967170806 y_1_6
      + 76.6869832637728 y_2_1 + 928.860882238808 y_2_3
      + 892.056711478606 y_2_4 + 401.106593647207 y_2_5
      + 392.065270380884 y_2_6 + 133.214316523977 y_3_1
      + 140.649233090375 y_3_2 + 32.8391959069209 y_3_4
      + 47.0119761602904 y_3_5 + 294.707744729101 y_3_6
      + 758.820621961161 y_4_1 + 130.243108863325 y_4_2
      + 921.508888234826 y_4_3 + 315.506496161445 y_4_5
      + 341.266922701716 y_4_6 + 411.872553831338 y_5_1
      + 621.442151406266 y_5_2 + 792.338656355122 y_5_3
      + 788.712562706425 y_5_4 + 100.618780480538 y_5_6
      + 188.608981891217 y_6_1 + 81.7851707375306 y_6_2
      + 279.224124252244 y_6_3 + 986.8600465672 y_6_4 + 301.582943942848 y_6_5
Subject To
 c1:  x_0_1 - x_1_2 - x_1_3 - x_1_4 - x_1_5 - x_1_6 + x_2_1 + x_3_1 + x_4_1
      + x_5_1 + x_6_1  = 1
 c2:  x_0_2 + x_1_2 - x_2_1 - x_2_3 - x_2_4 - x_2_5 - x_2_6 + x_3_2 + x_4_2
      + x_5_2 + x_6_2  = 1
 c3:  x_0_3 + x_1_3 + x_2_3 - x_3_1 - x_3_2 - x_3_4 - x_3_5 - x_3_6 + x_4_3
      + x_5_3 + x_6_3  = 1
 c4:  x_0_4 + x_1_4 + x_2_4 + x_3_4 - x_4_1 - x_4_2 - x_4_3 - x_4_5 - x_4_6
      + x_5_4 + x_6_4  = 1
 c5:  x_0_5 + x_1_5 + x_2_5 + x_3_5 + x_4_5 - x_5_1 - x_5_2 - x_5_3 - x_5_4
      - x_5_6 + x_6_5  = 1
 c6:  x_0_6 + x_1_6 + x_2_6 + x_3_6 + x_4_6 + x_5_6 - x_6_1 - x_6_2 - x_6_3
      - x_6_4 - x_6_5  = 1
 c7:  y_0_1 + y_0_2 + y_0_3 + y_0_4 + y_0_5 + y_0_6  = 1
 c8:  y_1_0 + y_1_2 + y_1_3 + y_1_4 + y_1_5 + y_1_6  = 1
 c9:  y_2_0 + y_2_1 + y_2_3 + y_2_4 + y_2_5 + y_2_6  = 1
 c10: y_3_0 + y_3_1 + y_3_2 + y_3_4 + y_3_5 + y_3_6  = 1
 c11: y_4_0 + y_4_1 + y_4_2 + y_4_3 + y_4_5 + y_4_6  = 1
 c12: y_5_0 + y_5_1 + y_5_2 + y_5_3 + y_5_4 + y_5_6  = 1
 c13: y_6_0 + y_6_1 + y_6_2 + y_6_3 + y_6_4 + y_6_5  = 1
 c14: y_1_0 + y_2_0 + y_3_0 + y_4_0 + y_5_0 + y_6_0  = 1
 c15: y_0_1 + y_2_1 + y_3_1 + y_4_1 + y_5_1 + y_6_1  = 1
 c16: y_0_2 + y_1_2 + y_3_2 + y_4_2 + y_5_2 + y_6_2  = 1
 c17: y_0_3 + y_1_3 + y_2_3 + y_4_3 + y_5_3 + y_6_3  = 1
 c18: y_0_4 + y_1_4 + y_2_4 + y_3_4 + y_5_4 + y_6_4  = 1
 c19: y_0_5 + y_1_5 + y_2_5 + y_3_5 + y_4_5 + y_6_5  = 1
 c20: y_0_6 + y_1_6 + y_2_6 + y_3_6 + y_4_6 + y_5_6  = 1
 c21: x_0_1 - 6 y_0_1 <= 0
 c22: x_0_2 - 6 y_0_2 <= 0
 c23: x_0_3 - 6 y_0_3 <= 0
 c24: x_0_4 - 6 y_0_4 <= 0
 c25: x_0_5 - 6 y_0_5 <= 0
 c26: x_0_6 - 6 y_0_6 <= 0
 c27: x_1_2 - 6 y_1_2 <= 0
 c28: x_1_3 - 6 y_1_3 <= 0
 c29: x_1_4 - 6 y_1_4 <= 0
 c30: x_1_5 - 6 y_1_5 <= 0
 c31: x_1_6 - 6 y_1_6 <= 0
 c32: x_2_1 - 6 y_2_1 <= 0
 c33: x_2_3 - 6 y_2_3 <= 0
 c34: x_2_4 - 6 y_2_4 <= 0
 c35: x_2_5 - 6 y_2_5 <= 0
 c36: x_2_6 - 6 y_2_6 <= 0
 c37: x_3_1 - 6 y_3_1 <= 0
 c38: x_3_2 - 6 y_3_2 <= 0
 c39: x_3_4 - 6 y_3_4 <= 0
 c40: x_3_5 - 6 y_3_5 <= 0
 c41: x_3_6 - 6 y_3_6 <= 0
 c42: x_4_1 - 6 y_4_1 <= 0
 c43: x_4_2 - 6 y_4_2 <= 0
 c44: x_4_3 - 6 y_4_3 <= 0
 c45: x_4_5 - 6 y_4_5 <= 0
 c46: x_4_6 - 6 y_4_6 <= 0
 c47: x_5_1 - 6 y_5_1 <= 0
 c48: x_5_2 - 6 y_5_2 <= 0
 c49: x_5_3 - 6 y_5_3 <= 0
 c50: x_5_4 - 6 y_5_4 <= 0
 c51: x_5_6 - 6 y_5_6 <= 0
 c52: x_6_1 - 6 y_6_1 <= 0
 c53: x_6_2 - 6 y_6_2 <= 0
 c54: x_6_3 - 6 y_6_3 <= 0
 c55: x_6_4 - 6 y_6_4 <= 0
 c56: x_6_5 - 6 y_6_5 <= 0
Bounds
 0 <= x_0_1 <= 7
 0 <= x_0_2 <= 7
 0 <= x_0_3 <= 7
 0 <= x_0_4 <= 7
 0 <= x_0_5 <= 7
 0 <= x_0_6 <= 7
 0 <= x_1_2 <= 7
 0 <= x_1_3 <= 7
 0 <= x_1_4 <= 7
 0 <= x_1_5 <= 7
 0 <= x_1_6 <= 7
 0 <= x_2_1 <= 7
 0 <= x_2_3 <= 7
 0 <= x_2_4 <= 7
 0 <= x_2_5 <= 7
 0 <= x_2_6 <= 7
 0 <= x_3_1 <= 7
 0 <= x_3_2 <= 7
 0 <= x_3_4 <= 7
 0 <= x_3_5 <= 7
 0 <= x_3_6 <= 7
 0 <= x_4_1 <= 7
 0 <= x_4_2 <= 7
 0 <= x_4_3 <= 7
 0 <= x_4_5 <= 7
 0 <= x_4_6 <= 7
 0 <= x_5_1 <= 7
 0 <= x_5_2 <= 7
 0 <= x_5_3 <= 7
 0 <= x_5_4 <= 7
 0 <= x_5_6 <= 7
 0 <= x_6_1 <= 7
 0 <= x_6_2 <= 7
 0 <= x_6_3 <= 7
 0 <= x_6_4 <= 7
 0 <= x_6_5 <= 7
 0 <= y_0_1 <= 1
 0 <= y_0_2 <= 1
 0 <= y_0_3 <= 1
 0 <= y_0_4 <= 1
 0 <= y_0_5 <= 1
 0 <= y_0_6 <= 1
 0 <= y_1_0 <= 1
 0 <= y_1_2 <= 1
 0 <= y_1_3 <= 1
 0 <= y_1_4 <= 1
 0 <= y_1_5 <= 1
 0 <= y_1_6 <= 1
 0 <= y_2_0 <= 1
 0 <= y_2_1 <= 1
 0 <= y_2_3 <= 1
 0 <= y_2_4 <= 1
 0 <= y_2_5 <= 1
 0 <= y_2_6 <= 1
 0 <= y_3_0 <= 1
 0 <= y_3_1 <= 1
 0 <= y_3_2 <= 1
 0 <= y_3_4 <= 1
 0 <= y_3_5 <= 1
 0 <= y_3_6 <= 1
 0 <= y_4_0 <= 1
 0 <= y_4_1 <= 1
 0 <= y_4_2 <= 1
 0 <= y_4_3 <= 1
 0 <= y_4_5 <= 1
 0 <= y_4_6 <= 1
 0 <= y_5_0 <= 1
 0 <= y_5_1 <= 1
 0 <= y_5_2 <= 1
 0 <= y_5_3 <= 1
 0 <= y_5_4 <= 1
 0 <= y_5_6 <= 1
 0 <= y_6_0 <= 1
 0 <= y_6_1 <= 1
 0 <= y_6_2 <= 1
 0 <= y_6_3 <= 1
 0 <= y_6_4 <= 1
 0 <= y_6_5 <= 1
Binaries
 y_0_1  y_0_2  y_0_3  y_0_4  y_0_5  y_0_6  y_1_0  y_1_2  y_1_3  y_1_4  y_1_5 
 y_1_6  y_2_0  y_2_1  y_2_3  y_2_4  y_2_5  y_2_6  y_3_0  y_3_1  y_3_2  y_3_4 
 y_3_5  y_3_6  y_4_0  y_4_1  y_4_2  y_4_3  y_4_5  y_4_6  y_5_0  y_5_1  y_5_2 
 y_5_3  y_5_4  y_5_6  y_6_0  y_6_1  y_6_2  y_6_3  y_6_4  y_6_5 
End
