1/Lab1TSP.sol
<?xml version = "1.0" encoding="UTF-8" standalone="yes"?>
<CPLEXSolution version="1.2">
 <header
   problemName=""
   solutionName="incumbent"
   solutionIndex="-1"
   objectiveValue="457.56559619226118"
   solutionTypeValue="3"
   solutionTypeString="primal"
   solutionStatusValue="101"
   solutionStatusString="integer optimal solution"
   solutionMethodString="mip"
   primalFeasible="1"
   dualFeasible="1"
   MIPNodes="0"
   MIPIterations="22"
   writeLevel="1"/>
 <quality
   epInt="1.0000000000000001e-05"
   epRHS="9.9999999999999995e-07"
   maxIntInfeas="0"
   maxPrimalInfeas="0"
   maxX="6"
   maxSlack="5"/>
 <linearConstraints>
  <constraint index="0" slack="0"/>
  <constraint index="1" slack="0"/>
  <constraint index="2" slack="0"/>
  <constraint index="3" slack="0"/>
  <constraint index="4" slack="0"/>
  <constraint index="5" slack="0"/>
  <constraint index="6" slack="0"/>
  <constraint index="7" slack="0"/>
  <constraint index="8" slack="0"/>
  <constraint index="9" slack="0"/>
  <constraint index="10" slack="0"/>
  <constraint index="11" slack="0"/>
  <constraint index="12" slack="0"/>
  <constraint index="13" slack="0"/>
  <constraint index="14" slack="0"/>
  <constraint index="15" slack="0"/>
  <constraint index="16" slack="0"/>
  <constraint index="17" slack="0"/>
  <constraint index="18" slack="0"/>
  <constraint index="19" slack="0"/>
  <constraint index="20" slack="0"/>
  <constraint index="21" slack="0"/>
  <constraint index="22" slack="0"/>
  <constraint index="23" slack="0"/>
  <constraint index="24" slack="0"/>
  <constraint index="25" slack="0"/>
  <constraint index="26" slack="0"/>
  <constraint index="27" slack="4"/>
  <constraint index="28" slack="0"/>
  <constraint index="29" slack="0"/>
  <constraint index="30" slack="0"/>
  <constraint index="31" slack="3"/>
  <constraint index="32" slack="0"/>
  <constraint index="33" slack="0"/>
  <constraint index="34" slack="0"/>
  <constraint index="35" slack="0"/>
  <constraint index="36" slack="0"/>
  <constraint index="37" slack="0"/>
  <constraint index="38" slack="5"/>
  <constraint index="39" slack="0"/>
  <constraint index="40" slack="0"/>
  <constraint index="41" slack="0"/>
  <constraint index="42" slack="0"/>
  <constraint index="43" slack="0"/>
  <constraint index="44" slack="0"/>
  <constraint index="45" slack="0"/>
  <constraint index="46" slack="0"/>
  <constraint index="47" slack="0"/>
  <constraint index="48" slack="0"/>
  <constraint index="49" slack="0"/>
  <constraint index="50" slack="1"/>
  <constraint index="51" slack="0"/>
  <constraint index="52" slack="2"/>
  <constraint index="53" slack="0"/>
  <constraint index="54" slack="0"/>
  <constraint index="55" slack="0"/>
 </linearConstraints>
 <variables>
  <variable name="x_0_1" index="0" value="0"/>
  <variable name="x_0_2" index="1" value="0"/>
  <variable name="x_0_3" index="2" value="0"/>
  <variable name="x_0_4" index="3" value="0"/>
  <variable name="x_0_5" index="4" value="6"/>
  <variable name="x_0_6" index="5" value="0"/>
  <variable name="x_1_2" index="6" value="0"/>
  <variable name="x_1_3" index="7" value="2"/>
  <variable name="x_1_4" index="8" value="0"/>
  <variable name="x_1_5" index="9" value="0"/>
  <variable name="x_1_6" index="10" value="0"/>
  <variable name="x_2_1" index="11" value="3"/>
  <variable name="x_2_3" index="12" value="0"/>
  <variable name="x_2_4" index="13" value="0"/>
  <variable name="x_2_5" index="14" value="0"/>
  <variable name="x_2_6" index="15" value="0"/>
  <variable name="x_3_1" index="16" value="0"/>
  <variable name="x_3_2" index="17" value="0"/>
  <variable name="x_3_4" index="18" value="1"/>
  <variable name="x_3_5" index="19" value="0"/>
  <variable name="x_3_6" index="20" value="0"/>
  <variable name="x_4_1" index="21" value="0"/>
  <variable name="x_4_2" index="22" value="0"/>
  <variable name="x_4_3" index="23" value="0"/>
  <variable name="x_4_5" index="24" value="0"/>
  <variable name="x_4_6" index="25" value="0"/>
  <variable name="x_5_1" index="26" value="0"/>
  <variable name="x_5_2" index="27" value="0"/>
  <variable name="x_5_3" index="28" value="0"/>
  <variable name="x_5_4" index="29" value="0"/>
  <variable name="x_5_6" index="30" value="5"/>
  <variable name="x_6_1" index="31" value="0"/>
  <variable name="x_6_2" index="32" value="4"/>
  <variable name="x_6_3" index="33" value="0"/>
  <variable name="x_6_4" index="34" value="0"/>
  <variable name="x_6_5" index="35" value="0"/>
  <variable name="y_0_1" index="36" value="0"/>
  <variable name="y_0_2" index="37" value="-0"/>
  <variable name="y_0_3" index="38" value="-0"/>
  <variable name="y_0_4" index="39" value="-0"/>
  <variable name="y_0_5" index="40" value="1"/>
  <variable name="y_0_6" index="41" value="0"/>
  <variable name="y_1_0" index="42" value="0"/>
  <variable name="y_1_2" index="43" value="0"/>
  <variable name="y_1_3" index="44" value="1"/>
  <variable name="y_1_4" index="45" value="-0"/>
  <variable name="y_1_5" index="46" value="-0"/>
  <variable name="y_1_6" index="47" value="-0"/>
  <variable name="y_2_0" index="48" value="-0"/>
  <variable name="y_2_1" index="49" value="1"/>
  <variable name="y_2_3" index="50" value="-0"/>
  <variable name="y_2_4" index="51" value="-0"/>
  <variable name="y_2_5" index="52" value="-0"/>
  <variable name="y_2_6" index="53" value="-0"/>
  <variable name="y_3_0" index="54" value="-0"/>
  <variable name="y_3_1" index="55" value="0"/>
  <variable name="y_3_2" index="56" value="-0"/>
  <variable name="y_3_4" index="57" value="1"/>
  <variable name="y_3_5" index="58" value="0"/>
  <variable name="y_3_6" index="59" value="-0"/>
  <variable name="y_4_0" index="60" value="1"/>
  <variable name="y_4_1" index="61" value="0"/>
  <variable name="y_4_2" index="62" value="-0"/>
  <variable name="y_4_3" index="63" value="-0"/>
  <variable name="y_4_5" index="64" value="-0"/>
  <variable name="y_4_6" index="65" value="0"/>
  <variable name="y_5_0" index="66" value="0"/>
  <variable name="y_5_1" index="67" value="0"/>
  <variable name="y_5_2" index="68" value="-0"/>
  <variable name="y_5_3" index="69" value="-0"/>
  <variable name="y_5_4" index="70" value="-0"/>
  <variable name="y_5_6" index="71" value="1"/>
  <variable name="y_6_0" index="72" value="-0"/>
  <variable name="y_6_1" index="73" value="0"/>
  <variable name="y_6_2" index="74" value="1"/>
  <variable name="y_6_3" index="75" value="-0"/>
  <variable name="y_6_4" index="76" value="-0"/>
  <variable name="y_6_5" index="77" value="-0"/>
 </variables>
</CPLEXSolution>
